40 390 
1 3 1
1 6 1
1 9 1
1 10 1
1 12 1
1 13 1
1 15 1
1 16 1
1 17 1
1 20 1
1 22 1
1 25 1
1 26 1
1 27 1
1 30 1
1 32 1
1 34 1
1 36 1
1 37 1
1 40 1
2 5 1
2 6 1
2 7 1
2 8 1
2 10 1
2 12 1
2 13 1
2 14 1
2 15 1
2 17 1
2 20 1
2 24 1
2 25 1
2 26 1
2 27 1
2 28 1
2 32 1
2 33 1
2 35 1
2 39 1
2 40 1
3 5 1
3 7 1
3 14 1
3 19 1
3 20 1
3 21 1
3 26 1
3 28 1
3 30 1
3 31 1
3 32 1
3 34 1
3 36 1
3 37 1
3 38 1
3 40 1
4 5 1
4 7 1
4 9 1
4 10 1
4 13 1
4 16 1
4 17 1
4 22 1
4 23 1
4 24 1
4 26 1
4 29 1
4 30 1
4 31 1
4 32 1
4 35 1
4 36 1
4 37 1
4 39 1
5 8 1
5 9 1
5 13 1
5 15 1
5 19 1
5 20 1
5 21 1
5 23 1
5 28 1
5 30 1
5 31 1
5 32 1
5 33 1
5 35 1
5 36 1
5 37 1
5 38 1
6 7 1
6 11 1
6 13 1
6 14 1
6 15 1
6 17 1
6 19 1
6 20 1
6 21 1
6 25 1
6 26 1
6 27 1
6 28 1
6 30 1
6 31 1
6 33 1
6 36 1
6 37 1
6 38 1
6 39 1
6 40 1
7 9 1
7 10 1
7 12 1
7 13 1
7 14 1
7 15 1
7 16 1
7 18 1
7 19 1
7 20 1
7 22 1
7 24 1
7 25 1
7 27 1
7 29 1
7 38 1
7 39 1
8 14 1
8 15 1
8 17 1
8 18 1
8 22 1
8 23 1
8 24 1
8 26 1
8 27 1
8 29 1
8 35 1
8 36 1
8 37 1
8 39 1
9 11 1
9 16 1
9 17 1
9 19 1
9 22 1
9 23 1
9 24 1
9 29 1
9 30 1
9 31 1
9 32 1
9 33 1
9 34 1
9 38 1
9 39 1
10 11 1
10 12 1
10 13 1
10 14 1
10 16 1
10 23 1
10 24 1
10 25 1
10 26 1
10 34 1
10 36 1
10 38 1
11 12 1
11 13 1
11 15 1
11 16 1
11 18 1
11 19 1
11 20 1
11 21 1
11 22 1
11 23 1
11 26 1
11 28 1
11 29 1
11 30 1
11 31 1
11 33 1
11 34 1
11 37 1
11 39 1
11 40 1
12 16 1
12 17 1
12 18 1
12 19 1
12 22 1
12 23 1
12 24 1
12 25 1
12 28 1
12 30 1
12 31 1
12 33 1
12 34 1
12 35 1
12 36 1
12 38 1
12 39 1
13 14 1
13 15 1
13 21 1
13 25 1
13 27 1
13 28 1
13 30 1
13 33 1
13 34 1
13 38 1
14 17 1
14 18 1
14 19 1
14 20 1
14 22 1
14 23 1
14 24 1
14 28 1
14 29 1
14 31 1
14 33 1
14 35 1
14 37 1
14 38 1
14 39 1
14 40 1
15 18 1
15 19 1
15 21 1
15 22 1
15 24 1
15 25 1
15 27 1
15 29 1
15 31 1
15 32 1
15 35 1
15 36 1
15 40 1
16 17 1
16 24 1
16 26 1
16 27 1
16 31 1
16 32 1
16 33 1
16 34 1
16 38 1
16 39 1
16 40 1
17 18 1
17 19 1
17 20 1
17 21 1
17 22 1
17 26 1
17 28 1
17 29 1
17 31 1
17 35 1
17 37 1
17 40 1
18 20 1
18 21 1
18 22 1
18 23 1
18 24 1
18 30 1
18 32 1
18 33 1
18 34 1
18 38 1
18 40 1
19 20 1
19 21 1
19 22 1
19 23 1
19 25 1
19 27 1
19 28 1
19 30 1
19 32 1
19 34 1
19 35 1
19 36 1
19 40 1
20 21 1
20 22 1
20 24 1
20 29 1
20 33 1
20 35 1
20 37 1
20 39 1
20 40 1
21 27 1
21 28 1
21 30 1
21 32 1
21 33 1
21 35 1
21 37 1
21 38 1
21 40 1
22 23 1
22 26 1
22 27 1
22 28 1
22 30 1
22 32 1
22 34 1
22 37 1
23 27 1
23 32 1
23 36 1
23 37 1
23 38 1
24 25 1
24 29 1
24 30 1
24 31 1
24 33 1
24 37 1
24 38 1
24 40 1
25 27 1
25 32 1
25 33 1
25 34 1
25 36 1
25 38 1
25 39 1
26 27 1
26 28 1
26 31 1
26 34 1
26 36 1
26 38 1
26 40 1
27 29 1
27 30 1
27 31 1
27 33 1
27 35 1
27 38 1
28 34 1
28 35 1
28 39 1
29 32 1
29 33 1
29 35 1
29 38 1
29 39 1
29 40 1
30 32 1
30 35 1
30 36 1
30 38 1
30 39 1
31 34 1
31 36 1
31 38 1
31 39 1
31 40 1
32 33 1
32 36 1
32 38 1
32 40 1
33 34 1
33 39 1
34 36 1
34 37 1
34 39 1
35 38 1
35 39 1
36 37 1
36 38 1
37 39 1
37 40 1
38 40 1
39 40 1
